
Log started (V11.0.0) Fri May 16 02:47:36 2008

Tried aggregator 1 time.
Reduced MIP has 230 rows, 6001 columns, and 12030 nonzeros.
Presolve time =    0.05 sec.
Clique table members: 200.
MIP emphasis: balance optimality and feasibility.
MIP search method: dynamic search.
Parallel mode: none, using 1 thread.
Root relaxation solution time =    0.17 sec.

        Nodes                                         Cuts/
   Node  Left     Objective  IInf  Best Integer     Best Node    ItCnt     Gap

*     0+    0                         2766.0000      147.2945      524   94.67%
*     0+    0                          214.0000      147.2945      524   31.17%
      0     0      148.0000    55      214.0000      Fract: 5      548   30.84%
*     0+    0                          197.0000      148.0000      548   24.87%
      0     0      148.3862    56      197.0000   ZeroHalf: 1      599   24.68%
*     0+    0                          192.0000      148.3862      599   22.72%
      0     0      152.8636    60      192.0000      Cuts: 17      924   20.38%
*     0+    0                          183.0000      152.8636      924   16.47%
      0     0      153.1359    58      183.0000       Cuts: 8      988   16.32%
*     0+    0                          178.0000      153.1359      988   13.97%
      0     0      153.1406    58      178.0000       Cuts: 5     1023   13.97%
*     0+    0                          177.0000      153.1406     1023   13.48%
      0     0      153.1539    56      177.0000       Cuts: 4     1076   13.47%
*     0+    0                          172.0000      153.1539     1076   10.96%
      0     0      153.3444    65      172.0000       Cuts: 9     1122   10.85%
*     0+    0                          170.0000      153.3444     1122    9.80%
      0     0      153.3444    68      170.0000       Cuts: 6     1131    9.80%
*     0+    0                          167.0000      153.3444     1131    8.18%
*     0+    0                          166.0000      153.3444     1131    7.62%
*     0+    0                          165.0000      153.3444     1131    7.06%
*     0+    0                          163.0000      153.3444     1131    5.92%
      0     2      154.0000    62      163.0000      153.3444     1131    5.92%
    100    81      154.0000    42      163.0000      154.0000     5947    5.52%
*   120+   93                          162.0000      154.0000     6906    4.94%
    200   153      155.0000    34      162.0000      154.0000     9400    4.94%
    300   212      155.2640    41      162.0000      154.0000    12589    4.94%
    400   267      155.4172    39      162.0000      154.0000    15382    4.94%
*   486+  206                          160.0000      157.3428    19763    1.66%
    500   210      158.0000    29      160.0000      158.0000    19923    1.25%
    600   229      159.0000    17      160.0000      158.0000    21486    1.25%
*   686+  111                          159.0000      158.0000    23502    0.63%
    700    87    infeasible            159.0000      158.0000    26850    0.63%
    800     5    infeasible            159.0000      158.0000    42944    0.63%

Clique cuts applied:  1
Cover cuts applied:  107
Mixed integer rounding cuts applied:  9
Gomory fractional cuts applied:  3

Solution pool: 16 solutions saved.

MIP - Integer optimal solution:  Objective = 1.5900000000e+002
Solution time =   30.70 sec.  Iterations = 43649  Nodes = 806


Incumbent solution
Variable Name           Solution Value
Cmax                        159.000000
X_1_14                        1.000000
X_2_9                         1.000000
X_3_14                        1.000000
X_4_30                        1.000000
X_5_30                        1.000000
X_6_23                        1.000000
X_7_30                        1.000000
X_8_4                         1.000000
X_9_3                         1.000000
X_10_27                       1.000000
X_11_23                       1.000000
X_12_6                        1.000000
X_13_29                       1.000000
X_14_3                        1.000000
X_15_4                        1.000000
X_16_28                       1.000000
X_17_27                       1.000000
X_18_20                       1.000000
X_19_14                       1.000000
X_20_30                       1.000000
X_21_27                       1.000000
X_22_27                       1.000000
X_23_29                       1.000000
X_24_23                       1.000000
X_25_28                       1.000000
X_26_29                       1.000000
X_27_27                       1.000000
X_28_27                       1.000000
X_29_7                        1.000000
X_30_23                       1.000000
X_31_23                       1.000000
X_32_30                       1.000000
X_33_27                       1.000000
X_34_26                       1.000000
X_35_30                       1.000000
X_36_24                       1.000000
X_37_23                       1.000000
X_38_23                       1.000000
X_39_8                        1.000000
X_40_4                        1.000000
X_41_20                       1.000000
X_42_27                       1.000000
X_43_14                       1.000000
X_44_19                       1.000000
X_45_30                       1.000000
X_46_10                       1.000000
X_47_30                       1.000000
X_48_19                       1.000000
X_49_30                       1.000000
X_50_23                       1.000000
X_51_23                       1.000000
X_52_26                       1.000000
X_53_13                       1.000000
X_54_17                       1.000000
X_55_26                       1.000000
X_56_19                       1.000000
X_57_23                       1.000000
X_58_29                       1.000000
X_59_30                       1.000000
X_60_26                       1.000000
X_61_12                       1.000000
X_62_30                       1.000000
X_63_4                        1.000000
X_64_29                       1.000000
X_65_19                       1.000000
X_66_30                       1.000000
X_67_30                       1.000000
X_68_30                       1.000000
X_69_19                       1.000000
X_70_27                       1.000000
X_71_4                        1.000000
X_72_23                       1.000000
X_73_14                       1.000000
X_74_15                       1.000000
X_75_30                       1.000000
X_76_19                       1.000000
X_77_23                       1.000000
X_78_27                       1.000000
X_79_30                       1.000000
X_80_19                       1.000000
X_81_30                       1.000000
X_82_30                       1.000000
X_83_27                       1.000000
X_84_23                       1.000000
X_85_23                       1.000000
X_86_2                        1.000000
X_87_30                       1.000000
X_88_27                       1.000000
X_89_8                        1.000000
X_90_4                        1.000000
X_91_1                        1.000000
X_92_4                        1.000000
X_93_30                       1.000000
X_94_26                       1.000000
X_95_30                       1.000000
X_96_23                       1.000000
X_97_12                       1.000000
X_98_12                       1.000000
X_99_19                       1.000000
X_100_4                       1.000000
X_101_12                      1.000000
X_102_23                      1.000000
X_103_17                      1.000000
X_104_14                      1.000000
X_105_27                      1.000000
X_106_21                      1.000000
X_107_29                      1.000000
X_108_23                      1.000000
X_109_27                      1.000000
X_110_17                      1.000000
X_111_23                      1.000000
X_112_21                      1.000000
X_113_26                      1.000000
X_114_21                      1.000000
X_115_26                      1.000000
X_116_21                      1.000000
X_117_23                      1.000000
X_118_4                       1.000000
X_119_23                      1.000000
X_120_18                      1.000000
X_121_25                      1.000000
X_122_27                      1.000000
X_123_26                      1.000000
X_124_12                      1.000000
X_125_4                       1.000000
X_126_27                      1.000000
X_127_17                      1.000000
X_128_22                      1.000000
X_129_19                      1.000000
X_130_23                      1.000000
X_131_23                      1.000000
X_132_30                      1.000000
X_133_30                      1.000000
X_134_4                       1.000000
X_135_25                      1.000000
X_136_20                      1.000000
X_137_25                      1.000000
X_138_23                      1.000000
X_139_30                      1.000000
X_140_27                      1.000000
X_141_4                       1.000000
X_142_25                      1.000000
X_143_30                      1.000000
X_144_13                      1.000000
X_145_16                      1.000000
X_146_23                      1.000000
X_147_12                      1.000000
X_148_19                      1.000000
X_149_9                       1.000000
X_150_4                       1.000000
X_151_27                      1.000000
X_152_26                      1.000000
X_153_23                      1.000000
X_154_23                      1.000000
X_155_19                      1.000000
X_156_4                       1.000000
X_157_23                      1.000000
X_158_5                       1.000000
X_159_20                      1.000000
X_160_4                       1.000000
X_161_12                      1.000000
X_162_27                      1.000000
X_163_27                      1.000000
X_164_27                      1.000000
X_165_14                      1.000000
X_166_23                      1.000000
X_167_29                      1.000000
X_168_23                      1.000000
X_169_23                      1.000000
X_170_27                      1.000000
X_171_4                       1.000000
X_172_14                      1.000000
X_173_27                      1.000000
X_174_26                      1.000000
X_175_19                      1.000000
X_176_30                      1.000000
X_177_30                      1.000000
X_178_4                       1.000000
X_179_11                      1.000000
X_180_15                      1.000000
X_181_26                      1.000000
X_182_4                       1.000000
X_183_27                      1.000000
X_184_4                       1.000000
X_185_30                      1.000000
X_186_23                      1.000000
X_187_25                      1.000000
X_188_27                      1.000000
X_189_19                      1.000000
X_190_27                      1.000000
X_191_10                      1.000000
X_192_4                       1.000000
X_193_20                      1.000000
X_194_27                      1.000000
X_195_19                      1.000000
X_196_27                      1.000000
X_197_27                      1.000000
X_198_12                      1.000000
X_199_4                       1.000000
X_200_4                       1.000000
All other variables in the range 1-6001 are 0.
